15
0   29  20  21  16  31  100 12  4   31  18  22  30  45  20
29  0   15  29  28  40  72  21  29  41  12  20  10  30  15
20  15  0   15  14  25  81  9   23  27  13  10  21  35  12
21  29  15  0   4   12  92  12  25  13  25  16  30  40  10
16  28  14  4   0   16  94  10  20  15  20  10  25  35  12
31  40  25  12  16  0   95  24  36  3   37  28  45  50  22
100 72  81  92  94  95  0   90  101 99  80  91  75  60  85
12  21  9   12  10  24  90  0   15  25  13  10  20  30  12
4   29  23  25  20  36  101 15  0   35  18  22  30  45  20
31  41  27  13  15  3   99  25  35  0   38  29  46  51  23
18  12  13  25  20  37  80  13  18  38  0   15  12  25  10
22  20  10  16  10  28  91  10  22  29  15  0   22  32  14
30  10  21  30  25  45  75  20  30  46  12  22  0   20  15
45  30  35  40  35  50  60  30  45  51  25  32  20  0   25
20  15  12  10  12  22  85  12  20  23  10  14  15  25  0